n_boats=80;
n_periods=11;
capacity=[48,47,15,52,30,52,35,11,23,25,28,36,7,24,3,7,12,26,45,3,2,36,20,32,22,43,7,10,45,48,33,32,46,1,57,41,53,19,27,45,21,57,36,7,26,8,21,28,12,45,53,53,22,3,17,55,52,16,29,9,53,56,29,18,5,25,11,44,48,3,23,28,28,19,48,53,32,27,26,57];
crew=[19,9,8,28,15,10,18,4,13,15,10,17,1,8,1,2,4,8,15,1,1,15,11,17,5,12,3,5,19,23,15,9,24,1,30,22,13,6,14,9,9,29,20,2,10,4,11,11,3,16,31,30,7,1,4,23,26,7,8,1,27,15,11,3,2,5,4,21,12,1,11,13,11,5,25,14,10,15,13,20];
